17	4	3
21	20	18	25	29	27	24	
0	0	0	0	0	9	2	9	4	10	10	3	2	3	4
5	4	9	10	4	6	8	10	2	1	2	2	9	17
1	4	10	9	4	4	1	3	1	7	5	3	5	10	13
1	0	1	0	1	8	6	3	5	4	6	2	6	17
6	3	0	5	0	1	5	7	9	4	10	1	11
175	0	1	0	8	3	2	2	2	6	1	1	7
225	0	5	0	10	1	2	8	10	3	8	2	8	12
125	2	2	6	0	2	6	9	5	6	5	2	15	17
75	4	7	3	0	9	4	1	2	8	4	1	13
175	9	0	4	1	8	9	9	4	7	2	1	17
25	8	6	4	8	4	10	4	6	1	10	1	17
225	9	0	7	0	6	2	1	4	2	4	2	14	17
6	10	6	3	8	2	3	9	10	7	5	1	16
5	1	9	1	5	4	6	9	4	8	6	1	17
5	8	10	2	6	8	5	4	6	9	1	1	17
7	0	8	0	0	8	3	1	1	8	1	1	17
0	0	0	0	0	10	3	2	1	7	3	0
